7
3
2
1 16
2 16
2
3 32
4 32
2
7 24
8 24
3
2
1 40
2 40
2
5 20
6 20
2
3 36
4 36
3
2
5 24
6 24
2
7 16
8 16
2
1 30
2 30
2
2
7 28
8 28
2
3 36
4 36
2
2
5 20
6 20
2
1 30
2 30
3
2
1 16
2 16
2
3 32
4 32
2
7 24
8 24
3
2
1 40
2 40
2
5 20
6 20
2
3 36
4 36
9
0 6 8 6 8 10 12 10 12
8 0 2 8 2 4 6 4 6
6 10 0 10 8 2 4 6 4
12 4 6 0 6 8 10 8 10
10 2 4 6 0 6 8 2 8
8 8 2 8 6 0 6 4 2
6 10 8 10 8 6 0 6 4
12 4 6 4 2 8 10 0 10
10 6 4 6 4 2 8 2 0
2
